# Objective value = 3.0065245238783041e+02
x[0] 0
x[1] 1
x[2] 1
x[3] 1
x[4] 0
x[5] 0
x[6] 0
x[7] 0
x[8] 0
x[9] 0
x[10] 0
x[11] 1
x[12] 0
x[13] 1
x[14] 0
x[15] 1
x[16] 0
x[17] 0
x[18] 0
x[19] 0
x[20] 0
x[21] 1
x[22] 1
x[23] 0
x[24] 0
x[25] 1
x[26] 0
x[27] 0
x[28] 1
x[29] 0
x[30] 1
x[31] 1
x[32] 0
x[33] 1
x[34] 0
x[35] 1
x[36] 1
x[37] 0
x[38] 0
x[39] 1
x[40] 1
x[41] 0
x[42] 0
x[43] 0
x[44] 0
x[45] 1
x[46] 0
x[47] 0
x[48] 1
x[49] 0
x[50] 0
x[51] 0
x[52] 1
x[53] 0
x[54] 1
x[55] 1
x[56] 1
x[57] 0
x[58] 1
x[59] 0
x[60] 1
x[61] 0
x[62] 1
x[63] 0
x[64] 0
x[65] 0
x[66] 0
x[67] 0
x[68] 1
x[69] 0
x[70] 0
x[71] 1
x[72] 0
x[73] 0
x[74] 1
x[75] 1
x[76] 0
x[77] 0
x[78] 1
x[79] 1
x[80] 1
x[81] 1
x[82] 0
x[83] 0
x[84] 1
x[85] 0
x[86] 1
x[87] 0
x[88] 1
x[89] 0
x[90] 0
x[91] 0
x[92] 0
x[93] 1
x[94] 0
x[95] 0
x[96] 0
x[97] 0
x[98] 0
x[99] 0
x[100] 0
x[101] 1
x[102] 0
x[103] 0
x[104] 0
x[105] 0
x[106] 1
x[107] 0
x[108] 1
x[109] 0
x[110] 0
x[111] 1
x[112] 1
x[113] 0
x[114] 1
x[115] 0
x[116] 1
x[117] 1
x[118] 0
x[119] 0
x[120] 0
x[121] 1
x[122] 0
x[123] 0
x[124] 0
x[125] 0
x[126] 1
x[127] 0
x[128] 0
x[129] 0
x[130] 1
x[131] 0
x[132] 1
x[133] 0
x[134] 0
x[135] 1
x[136] 1
x[137] 1
x[138] 1
x[139] 1
x[140] 0
x[141] 1
x[142] 1
x[143] 0
x[144] 1
x[145] 0
x[146] 0
x[147] 1
x[148] 1
x[149] 1
x[150] 0
x[151] 1
x[152] 0
x[153] 1
x[154] 1
x[155] 1
x[156] 0
x[157] 1
x[158] 1
x[159] 0
x[160] 1
x[161] 0
x[162] 0
x[163] 0
x[164] 0
x[165] 1
x[166] 1
x[167] 1
x[168] 1
x[169] 1
x[170] 0
x[171] 0
x[172] 1
x[173] 0
x[174] 1
x[175] 0
x[176] 0
x[177] 0
x[178] 0
x[179] 1
x[180] 0
x[181] 1
x[182] 1
x[183] 0
x[184] 1
x[185] 0
x[186] 1
x[187] 1
x[188] 0
x[189] 0
x[190] 0
x[191] 0
x[192] 0
x[193] 1
x[194] 1
x[195] 1
x[196] 1
x[197] 0
x[198] 1
x[199] 1
x[200] 0
x[201] 0
x[202] 0
x[203] 1
x[204] 1
x[205] 1
x[206] 0
x[207] 0
x[208] 0
x[209] 1
x[210] 1
x[211] 0
x[212] 1
x[213] 1
x[214] 0
x[215] 1
x[216] 0
x[217] 0
x[218] 1
x[219] 1
x[220] 0
x[221] 0
x[222] 1
x[223] 0
x[224] 0
x[225] 0
x[226] 0
x[227] 1
x[228] 1
x[229] 0
x[230] 1
x[231] 1
x[232] 0
x[233] 0
x[234] 1
x[235] 0
x[236] 0
x[237] 1
x[238] 1
x[239] 0
x[240] 0
x[241] 1
x[242] 1
x[243] 1
x[244] 0
x[245] 1
x[246] 0
x[247] 1
x[248] 0
x[249] 0
x[250] 0
x[251] 1
x[252] 0
x[253] 1
x[254] 1
x[255] 0
x[256] 0
x[257] 0
x[258] 0
x[259] 1
x[260] 0
x[261] 1
x[262] 0
x[263] 0
x[264] 1
x[265] 0
x[266] 0
x[267] 1
x[268] 1
x[269] 0
x[270] 1
x[271] 1
x[272] 0
x[273] 0
x[274] 0
x[275] 1
x[276] 1
x[277] 0
x[278] 1
x[279] 0
x[280] 1
x[281] 1
x[282] 0
x[283] 0
x[284] 1
x[285] 0
x[286] 0
x[287] 0
x[288] 1
x[289] 1
x[290] 0
x[291] 0
x[292] 0
x[293] 0
x[294] 1
x[295] 1
x[296] 1
x[297] 1
x[298] 1
x[299] 1
x[300] 1
x[301] 0
x[302] 1
x[303] 0
x[304] 1
x[305] 0
x[306] 0
x[307] 0
x[308] 1
x[309] 1
x[310] 0
x[311] 0
x[312] 1
x[313] 0
x[314] 0
x[315] 1
x[316] 0
x[317] 0
x[318] 1
x[319] 1
x[320] 1
x[321] 0
x[322] 0
x[323] 0
x[324] 0
x[325] 0
x[326] 0
x[327] 1
x[328] 1
x[329] 0
x[330] 0
x[331] 1
x[332] 1
x[333] 1
x[334] 0
x[335] 1
x[336] 1
x[337] 0
x[338] 0
x[339] 0
x[340] 1
x[341] 1
x[342] 0
x[343] 1
x[344] 1
x[345] 1
x[346] 1
x[347] 0
x[348] 0
x[349] 0
x[350] 0
x[351] 0
x[352] 1
x[353] 1
x[354] 1
x[355] 1
x[356] 1
x[357] 0
x[358] 0
x[359] 1
x[360] 0
x[361] 1
x[362] 1
x[363] 1
x[364] 0
x[365] 1
x[366] 0
x[367] 1
x[368] 0
x[369] 1
x[370] 0
x[371] 0
x[372] 1
x[373] 0
x[374] 1
x[375] 0
x[376] 1
x[377] 1
x[378] 0
x[379] 0
x[380] 1
x[381] 0
x[382] 1
x[383] 0
x[384] 1
x[385] 1
x[386] 1
x[387] 0
x[388] 1
x[389] 1
x[390] 1
x[391] 1
x[392] 0
x[393] 1
x[394] 1
x[395] 0
x[396] 0
x[397] 1
x[398] 0
x[399] 1
x[400] 0
x[401] 1
x[402] 0
x[403] 1
x[404] 1
x[405] 1
x[406] 0
x[407] 1
x[408] 1
x[409] 1
x[410] 1
x[411] 0
x[412] 1
x[413] 0
x[414] 1
x[415] 1
x[416] 1
x[417] 0
x[418] 0
x[419] 0
x[420] 0
x[421] 0
x[422] 1
x[423] 0
x[424] 1
x[425] 0
x[426] 0
x[427] 0
x[428] 0
x[429] 1
x[430] 0
x[431] 0
x[432] 1
x[433] 0
x[434] 0
x[435] 1
x[436] 1
x[437] 0
x[438] 0
x[439] 0
x[440] 0
x[441] 0
x[442] 1
x[443] 1
x[444] 1
x[445] 0
x[446] 0
x[447] 1
x[448] 0
x[449] 0
x[450] 0
x[451] 1
x[452] 1
x[453] 1
x[454] 1
x[455] 0
x[456] 0
x[457] 1
x[458] 1
x[459] 0
x[460] 0
x[461] 0
x[462] 0
x[463] 0
x[464] 0
x[465] 1
x[466] 0
x[467] 1
x[468] 1
x[469] 1
x[470] 1
x[471] 1
x[472] 1
x[473] 0
x[474] 1
x[475] 0
x[476] 0
x[477] 1
x[478] 1
x[479] 0
x[480] 0
x[481] 0
x[482] 1
x[483] 1
x[484] 0
x[485] 0
x[486] 0
x[487] 0
x[488] 1
x[489] 0
x[490] 1
x[491] 0
x[492] 1
x[493] 0
x[494] 0
x[495] 1
x[496] 0
x[497] 0
x[498] 0
x[499] 1
x[500] 0
x[501] 0
x[502] 0
x[503] 0
x[504] 0
x[505] 0
x[506] 1
x[507] 0
x[508] 1
x[509] 1
x[510] 0
x[511] 0
x[512] 0
x[513] 0
x[514] 1
x[515] 1
x[516] 0
x[517] 0
x[518] 0
x[519] 1
x[520] 0
x[521] 0
x[522] 1
x[523] 0
x[524] 0
x[525] 1
x[526] 1
x[527] 1
x[528] 0
x[529] 1
x[530] 0
x[531] 0
x[532] 0
x[533] 1
x[534] 1
x[535] 1
x[536] 1
x[537] 1
x[538] 1
x[539] 1
x[540] 0
x[541] 0
x[542] 1
x[543] 1
x[544] 1
x[545] 0
x[546] 1
x[547] 0
x[548] 1
x[549] 0
x[550] 1
x[551] 1
x[552] 0
x[553] 1
x[554] 1
x[555] 0
x[556] 1
x[557] 1
x[558] 0
x[559] 1
x[560] 1
x[561] 1
x[562] 0
x[563] 0
x[564] 0
x[565] 0
x[566] 0
x[567] 1
x[568] 1
x[569] 0
x[570] 0
x[571] 1
x[572] 1
x[573] 1
x[574] 0
x[575] 0
x[576] 0
x[577] 1
x[578] 1
x[579] 1
x[580] 0
x[581] 0
x[582] 0
x[583] 0
x[584] 1
x[585] 1
x[586] 1
x[587] 0
x[588] 0
x[589] 1
x[590] 0
x[591] 1
x[592] 1
x[593] 0
x[594] 1
x[595] 0
x[596] 1
x[597] 0
x[598] 0
x[599] 1
x[600] 0
x[601] 0
x[602] 1
x[603] 1
x[604] 0
x[605] 0
x[606] 0
x[607] 0
x[608] 1
x[609] 1
x[610] 0
x[611] 1
x[612] 1
x[613] 0
x[614] 0
x[615] 0
x[616] 1
x[617] 1
x[618] 1
x[619] 0
x[620] 1
x[621] 1
x[622] 0
x[623] 0
x[624] 0
x[625] 1
x[626] 0
x[627] 0
x[628] 1
x[629] 0
x[630] 1
x[631] 1
x[632] 1
x[633] 1
x[634] 0
x[635] 0
x[636] 1
x[637] 1
x[638] 1
x[639] 1
x[640] 0
x[641] 1
x[642] 1
x[643] 1
x[644] 0
x[645] 0
x[646] 1
x[647] 0
x[648] 0
x[649] 1
x[650] 1
x[651] 1
x[652] 1
x[653] 0
x[654] 0
x[655] 1
x[656] 0
x[657] 0
x[658] 0
x[659] 1
x[660] 0
x[661] 0
x[662] 0
x[663] 0
x[664] 1
x[665] 0
x[666] 0
x[667] 0
x[668] 1
x[669] 1
x[670] 0
x[671] 0
x[672] 1
x[673] 0
x[674] 0
x[675] 1
x[676] 0
x[677] 1
x[678] 0
x[679] 0
x[680] 0
x[681] 0
x[682] 1
x[683] 0
x[684] 1
x[685] 0
x[686] 0
x[687] 0
x[688] 1
x[689] 1
x[690] 0
x[691] 1
x[692] 1
x[693] 0
x[694] 0
x[695] 1
x[696] 0
x[697] 1
x[698] 1
x[699] 1
x[700] 0
x[701] 1
x[702] 0
x[703] 0
x[704] 0
x[705] 0
x[706] 0
x[707] 1
x[708] 1
x[709] 1
x[710] 1
x[711] 0
x[712] 0
x[713] 0
x[714] 0
x[715] 0
x[716] 1
x[717] 0
x[718] 0
x[719] 1
x[720] 1
x[721] 1
x[722] 1
x[723] 1
x[724] 1
x[725] 1
x[726] 0
x[727] 0
x[728] 1
x[729] 1
x[730] 0
x[731] 1
x[732] 0
x[733] 0
x[734] 1
x[735] 0
x[736] 0
x[737] 0
x[738] 1
x[739] 0
x[740] 0
x[741] 1
x[742] 1
x[743] 1
x[744] 1
x[745] 1
x[746] 0
x[747] 0
x[748] 1
x[749] 1
x[750] 0
x[751] 1
x[752] 1
x[753] 0
x[754] 0
x[755] 0
x[756] 1
x[757] 0
x[758] 0
x[759] 1
x[760] 0
x[761] 1
x[762] 1
x[763] 1
x[764] 0
x[765] 1
x[766] 0
x[767] 0
x[768] 0
x[769] 1
x[770] 0
x[771] 1
x[772] 0
x[773] 1
x[774] 0
x[775] 0
x[776] 1
x[777] 0
x[778] 0
x[779] 1
x[780] 1
x[781] 1
x[782] 1
x[783] 1
x[784] 1
x[785] 1
x[786] 0
x[787] 1
x[788] 1
x[789] 0
x[790] 1
x[791] 1
x[792] 1
x[793] 1
x[794] 1
x[795] 1
x[796] 0
x[797] 1
x[798] 1
x[799] 0
x[800] 1
x[801] 1
x[802] 1
x[803] 1
x[804] 1
x[805] 0
x[806] 1
x[807] 1
x[808] 1
x[809] 0
x[810] 0
x[811] 0
x[812] 0
x[813] 0
x[814] 1
x[815] 0
x[816] 1
x[817] 0
x[818] 0
x[819] 1
x[820] 1
x[821] 0
x[822] 1
x[823] 1
x[824] 0
x[825] 1
x[826] 1
x[827] 0
x[828] 0
x[829] 0
x[830] 0
x[831] 0
x[832] 0
x[833] 0
x[834] 1
x[835] 1
x[836] 1
x[837] 1
x[838] 0
x[839] 0
x[840] 0
x[841] 1
x[842] 0
x[843] 1
x[844] 1
x[845] 1
x[846] 1
x[847] 1
x[848] 1
x[849] 1
x[850] 0
x[851] 1
x[852] 0
x[853] 0
x[854] 1
x[855] 0
x[856] 1
x[857] 1
x[858] 0
x[859] 1
x[860] 0
x[861] 0
x[862] 0
x[863] 0
x[864] 1
x[865] 1
x[866] 0
x[867] 0
x[868] 1
x[869] 0
x[870] 1
x[871] 0
x[872] 1
x[873] 1
x[874] 1
x[875] 0
x[876] 1
x[877] 0
x[878] 1
x[879] 0
x[880] 1
x[881] 0
x[882] 1
x[883] 1
x[884] 1
x[885] 1
x[886] 1
x[887] 1
x[888] 0
x[889] 1
x[890] 1
x[891] 0
x[892] 0
x[893] 1
x[894] 0
x[895] 0
x[896] 0
x[897] 0
x[898] 1
x[899] 0
x[900] 1
x[901] 0
x[902] 1
x[903] 0
x[904] 0
x[905] 1
x[906] 0
x[907] 1
x[908] 0
x[909] 0
x[910] 1
x[911] 1
x[912] 1
x[913] 0
x[914] 1
x[915] 1
x[916] 0
x[917] 1
x[918] 0
x[919] 0
x[920] 1
x[921] 1
x[922] 1
x[923] 1
x[924] 1
x[925] 0
x[926] 0
x[927] 0
x[928] 0
x[929] 1
x[930] 0
x[931] 0
x[932] 1
x[933] 0
x[934] 0
x[935] 0
x[936] 1
x[937] 0
x[938] 1
x[939] 0
x[940] 0
x[941] 0
x[942] 1
x[943] 0
x[944] 1
x[945] 1
x[946] 1
x[947] 1
x[948] 0
x[949] 0
x[950] 0
x[951] 1
x[952] 1
x[953] 1
x[954] 1
x[955] 1
x[956] 0
x[957] 1
x[958] 1
x[959] 0
x[960] 1
x[961] 0
x[962] 1
x[963] 0
x[964] 1
x[965] 1
x[966] 1
x[967] 1
x[968] 1
x[969] 0
x[970] 0
x[971] 0
x[972] 1
x[973] 1
x[974] 1
x[975] 1
x[976] 0
x[977] 1
x[978] 1
x[979] 1
x[980] 0
x[981] 1
x[982] 0
x[983] 1
x[984] 0
x[985] 0
x[986] 1
x[987] 0
x[988] 1
x[989] 1
x[990] 0
x[991] 1
x[992] 1
x[993] 1
x[994] 0
x[995] 0
x[996] 0
x[997] 0
x[998] 0
x[999] 0
